c Created with the Wolfram Language : www.wolfram.com
c 
p edge 100 745
e 2 4
e 3 4
e 2 5
e 3 9
e 4 9
e 2 10
e 3 10
e 7 10
e 7 11
e 9 11
e 2 13
e 7 14
e 13 14
e 2 15
e 7 16
e 5 17
e 7 17
e 13 17
e 5 18
e 3 19
e 4 19
e 6 19
e 9 19
e 16 19
e 18 20
e 2 21
e 14 21
e 16 21
e 6 22
e 16 22
e 19 22
e 15 23
e 17 23
e 5 24
e 9 24
e 10 24
e 15 24
e 4 25
e 5 25
e 7 25
e 8 25
e 11 26
e 14 26
e 11 27
e 15 27
e 22 27
e 23 27
e 25 27
e 14 28
e 20 28
e 2 30
e 6 30
e 9 30
e 12 30
e 22 30
e 28 30
e 1 31
e 5 31
e 7 31
e 20 31
e 10 32
e 13 32
e 16 32
e 21 32
e 28 32
e 31 32
e 13 33
e 28 33
e 29 33
e 32 33
e 4 34
e 11 34
e 30 34
e 32 34
e 8 35
e 13 35
e 26 35
e 27 35
e 34 35
e 11 36
e 21 36
e 26 36
e 28 36
e 31 36
e 33 36
e 6 37
e 20 37
e 21 37
e 24 37
e 33 37
e 7 38
e 12 38
e 30 38
e 5 39
e 9 39
e 10 39
e 15 39
e 28 39
e 30 39
e 18 40
e 21 40
e 22 40
e 23 40
e 26 40
e 32 40
e 5 41
e 16 41
e 19 41
e 32 41
e 2 42
e 8 42
e 12 42
e 13 42
e 15 42
e 16 42
e 20 42
e 29 42
e 31 42
e 32 42
e 35 42
e 41 42
e 3 43
e 7 43
e 12 43
e 14 43
e 15 43
e 32 43
e 36 43
e 38 43
e 14 44
e 29 44
e 6 45
e 9 45
e 12 45
e 15 45
e 16 45
e 17 45
e 35 45
e 3 46
e 11 46
e 14 46
e 19 46
e 20 46
e 30 46
e 3 47
e 6 47
e 10 47
e 13 47
e 16 47
e 26 47
e 30 47
e 38 47
e 44 47
e 1 48
e 2 48
e 6 49
e 8 49
e 15 49
e 17 49
e 19 49
e 26 49
e 35 49
e 9 50
e 15 50
e 22 50
e 23 50
e 25 50
e 30 50
e 40 50
e 43 50
e 5 51
e 7 51
e 10 51
e 11 51
e 16 51
e 38 51
e 46 51
e 49 51
e 6 52
e 7 52
e 10 52
e 16 52
e 20 52
e 24 52
e 26 52
e 30 52
e 33 52
e 34 52
e 36 52
e 40 52
e 43 52
e 3 53
e 35 53
e 42 53
e 47 53
e 49 53
e 51 53
e 24 54
e 26 54
e 35 54
e 47 54
e 4 55
e 5 55
e 21 55
e 23 55
e 26 55
e 42 55
e 9 56
e 14 56
e 15 56
e 18 56
e 29 56
e 30 56
e 38 56
e 42 56
e 54 56
e 9 57
e 10 57
e 13 57
e 22 57
e 27 57
e 30 57
e 40 57
e 50 57
e 1 58
e 4 58
e 9 58
e 12 58
e 14 58
e 22 58
e 33 58
e 40 58
e 43 58
e 46 58
e 3 59
e 7 59
e 8 59
e 24 59
e 30 59
e 32 59
e 37 59
e 39 59
e 47 59
e 48 59
e 5 60
e 13 60
e 15 60
e 31 60
e 34 60
e 44 60
e 47 60
e 48 60
e 49 60
e 52 60
e 1 61
e 14 61
e 22 61
e 31 61
e 54 61
e 55 61
e 2 62
e 6 62
e 12 62
e 17 62
e 23 62
e 28 62
e 29 62
e 36 62
e 40 62
e 41 62
e 59 62
e 2 63
e 11 63
e 16 63
e 17 63
e 28 63
e 34 63
e 42 63
e 43 63
e 52 63
e 55 63
e 22 64
e 29 64
e 43 64
e 59 64
e 1 65
e 2 65
e 3 65
e 8 65
e 11 65
e 16 65
e 20 65
e 21 65
e 28 65
e 29 65
e 36 65
e 40 65
e 51 65
e 62 65
e 8 66
e 17 66
e 31 66
e 34 66
e 37 66
e 42 66
e 53 66
e 4 67
e 6 67
e 20 67
e 25 67
e 28 67
e 30 67
e 38 67
e 61 67
e 62 67
e 64 67
e 2 68
e 7 68
e 9 68
e 11 68
e 12 68
e 13 68
e 17 68
e 22 68
e 29 68
e 30 68
e 35 68
e 38 68
e 39 68
e 42 68
e 44 68
e 45 68
e 49 68
e 63 68
e 67 68
e 12 69
e 13 69
e 19 69
e 34 69
e 41 69
e 42 69
e 4 70
e 5 70
e 13 70
e 22 70
e 25 70
e 28 70
e 50 70
e 52 70
e 54 70
e 61 70
e 62 70
e 63 70
e 65 70
e 5 71
e 9 71
e 22 71
e 25 71
e 26 71
e 28 71
e 39 71
e 47 71
e 60 71
e 10 72
e 12 72
e 14 72
e 17 72
e 23 72
e 25 72
e 27 72
e 36 72
e 55 72
e 57 72
e 68 72
e 2 73
e 3 73
e 12 73
e 14 73
e 24 73
e 33 73
e 42 73
e 47 73
e 50 73
e 57 73
e 65 73
e 69 73
e 72 73
e 10 74
e 17 74
e 26 74
e 35 74
e 46 74
e 48 74
e 52 74
e 54 74
e 66 74
e 4 75
e 7 75
e 24 75
e 31 75
e 39 75
e 43 75
e 62 75
e 63 75
e 74 75
e 2 76
e 8 76
e 18 76
e 60 76
e 64 76
e 71 76
e 19 77
e 27 77
e 35 77
e 37 77
e 52 77
e 54 77
e 55 77
e 62 77
e 68 77
e 70 77
e 75 77
e 21 78
e 24 78
e 32 78
e 49 78
e 69 78
e 71 78
e 74 78
e 1 79
e 3 79
e 16 79
e 18 79
e 21 79
e 23 79
e 25 79
e 33 79
e 34 79
e 35 79
e 42 79
e 63 79
e 64 79
e 68 79
e 70 79
e 72 79
e 74 79
e 78 79
e 11 80
e 14 80
e 24 80
e 30 80
e 31 80
e 34 80
e 37 80
e 39 80
e 41 80
e 56 80
e 62 80
e 79 80
e 23 81
e 28 81
e 42 81
e 44 81
e 52 81
e 57 81
e 60 81
e 63 81
e 64 81
e 71 81
e 75 81
e 16 82
e 36 82
e 39 82
e 44 82
e 51 82
e 56 82
e 58 82
e 63 82
e 65 82
e 68 82
e 76 82
e 79 82
e 7 83
e 19 83
e 23 83
e 29 83
e 31 83
e 32 83
e 35 83
e 37 83
e 39 83
e 53 83
e 61 83
e 64 83
e 69 83
e 71 83
e 74 83
e 76 83
e 14 84
e 32 84
e 41 84
e 51 84
e 61 84
e 64 84
e 67 84
e 68 84
e 78 84
e 8 85
e 10 85
e 21 85
e 24 85
e 29 85
e 32 85
e 34 85
e 48 85
e 50 85
e 59 85
e 63 85
e 65 85
e 66 85
e 69 85
e 80 85
e 81 85
e 84 85
e 7 86
e 9 86
e 14 86
e 25 86
e 35 86
e 36 86
e 39 86
e 40 86
e 44 86
e 48 86
e 57 86
e 59 86
e 61 86
e 84 86
e 16 87
e 19 87
e 52 87
e 54 87
e 55 87
e 58 87
e 61 87
e 83 87
e 84 87
e 21 88
e 33 88
e 46 88
e 47 88
e 49 88
e 56 88
e 65 88
e 69 88
e 70 88
e 72 88
e 78 88
e 83 88
e 20 89
e 34 89
e 35 89
e 46 89
e 53 89
e 62 89
e 65 89
e 74 89
e 76 89
e 87 89
e 88 89
e 2 90
e 5 90
e 7 90
e 21 90
e 28 90
e 33 90
e 34 90
e 43 90
e 46 90
e 51 90
e 55 90
e 58 90
e 61 90
e 66 90
e 68 90
e 71 90
e 77 90
e 4 91
e 12 91
e 13 91
e 21 91
e 25 91
e 36 91
e 40 91
e 42 91
e 60 91
e 73 91
e 76 91
e 81 91
e 90 91
e 3 92
e 18 92
e 23 92
e 27 92
e 29 92
e 30 92
e 37 92
e 47 92
e 49 92
e 51 92
e 83 92
e 87 92
e 1 93
e 13 93
e 28 93
e 30 93
e 31 93
e 33 93
e 64 93
e 67 93
e 72 93
e 76 93
e 80 93
e 3 94
e 16 94
e 18 94
e 19 94
e 23 94
e 24 94
e 30 94
e 33 94
e 38 94
e 46 94
e 55 94
e 57 94
e 87 94
e 92 94
e 2 95
e 5 95
e 7 95
e 11 95
e 24 95
e 31 95
e 39 95
e 43 95
e 46 95
e 48 95
e 53 95
e 57 95
e 65 95
e 70 95
e 71 95
e 6 96
e 9 96
e 15 96
e 17 96
e 20 96
e 26 96
e 28 96
e 30 96
e 31 96
e 34 96
e 36 96
e 42 96
e 47 96
e 57 96
e 59 96
e 60 96
e 62 96
e 63 96
e 67 96
e 68 96
e 79 96
e 91 96
e 6 97
e 10 97
e 17 97
e 20 97
e 29 97
e 32 97
e 37 97
e 38 97
e 41 97
e 49 97
e 50 97
e 52 97
e 56 97
e 60 97
e 65 97
e 68 97
e 74 97
e 84 97
e 93 97
e 1 98
e 4 98
e 16 98
e 17 98
e 25 98
e 26 98
e 28 98
e 32 98
e 33 98
e 35 98
e 42 98
e 46 98
e 49 98
e 52 98
e 57 98
e 61 98
e 64 98
e 74 98
e 86 98
e 91 98
e 92 98
e 95 98
e 97 98
e 4 99
e 14 99
e 21 99
e 23 99
e 24 99
e 28 99
e 37 99
e 38 99
e 42 99
e 44 99
e 56 99
e 58 99
e 95 99
e 2 100
e 8 100
e 11 100
e 14 100
e 18 100
e 36 100
e 53 100
e 58 100
e 59 100
e 66 100
e 68 100
e 71 100
e 76 100
e 86 100
e 90 100
e 92 100
